c ---- [ banner ] ------------------------------------------------------------
c
c Kissat SAT Solver
c 
c Copyright (c) 2021-2024 Armin Biere University of Freiburg
c Copyright (c) 2019-2021 Armin Biere Johannes Kepler University Linz
c 
c Version 4.0.2 unknown
c gcc (GCC) 13.3.0 -W -Wall -O3 -march=native -funroll-loops -DNDEBUG
c Sat Feb 22 02:20:01 PM CET 2025 Linux main0 6.6.72 x86_64
c
c ---- [ parsing ] -----------------------------------------------------------
c
c opened and reading DIMACS file:
c
c   instances/00072cf107ae1349c8c59a15c5ce4af1-unif-c1275-v300-s428434218.cnf
c
c parsed 'p cnf 300 1275' header
c closing input after reading 18365 bytes (18 KB)
c finished parsing after 0.00 seconds
c
c ---- [ solving ] -----------------------------------------------------------
c
c seconds switched rate     size/glue tier1 binary      remaining
c        MB reductions conflicts size  tier2  irredundant
c         level restarts redundant glue  trail      variables
c
c *  0.00  3 0 0 0  0 0   0   0 0.0 0 0 0 0 0%   0 1275 300 100%
c (  0.00  3 0 0 0  0 0   0   0 0.0 0 0 0 0 0%   0 1275 300 100%
c .  0.00  3 0 0 0  0 0   0   0 0.0 0 0 0 0 0%   0 1275 300 100%
c e  0.02  3 0 0 0  0 0   0   0 0.0 0 0 0 0 0%   0 1255 288 96%
c )  0.02  3 0 0 0  0 0   0   0 0.0 0 0 0 0 0%   0 1255 288 96%
c {  0.02  3 0 0 0  0 0   0   0 0.0 0 0 2 6 0%   0 1255 288 96%
c -  0.02  3 17 0 1 27 2 1000 666 1.8 15 8 6 11 40%   0 1255 288 96%
c }  0.02  3 17 1 1 27 2 1000 666 1.8 15 8 6 11 40%   0 1255 288 96%
c [  0.02  3 0 1 1 27 0 1000 666 0.0 0 0 2 6 0%   0 1255 288 96%
c B  0.02  3 17 1 1 27 3 1004 670 1.9 18 9 2 6 49%   0 1255 288 96%
c ]  0.03  3 17 2 1 27 1 1889 1510 1.8 17 9 6 12 41%   0 1255 288 96%
c {  0.03  3 17 2 1 27 2 1889 1510 1.8 15 8 6 11 40%   0 1255 288 96%
c -  0.03  3 17 2 2 27 2 2000 1555 1.8 15 8 6 11 40%   0 1255 288 96%
c }  0.04  4 16 3 2 81 2 2889 2400 1.8 15 8 6 11 40%   0 1255 288 96%
c [  0.04  4 17 3 2 81 1 2889 2400 1.8 17 9 6 12 41%   0 1255 288 96%
c W  0.04  3 17 3 2 81 1 2889 2400 1.8 17 9 6 12 41%   0 1255 288 96%
c -  0.04  3 19 3 3 81 1 3415 2608 1.6 18 11 5 14 41%   0 1255 288 96%
c ]  0.05  4 20 4 3 82 1 3993 3143 1.6 18 12 5 14 41%   0 1255 288 96%
c {  0.05  4 16 4 3 82 2 3993 3143 1.8 15 8 6 11 40%   0 1255 288 96%
c u  0.05  4 17 4 3 116 2 4122 3132 1.7 15 8 6 11 40%   0 1255 288 96%
c
c seconds  switched  rate       size/glue tier1    binary      remaining
c        MB reductions conflicts      size  tier2    irredundant
c         level restarts   redundant    glue    trail      variables
c
c v  0.05  4 17 4 3 116 2 4122 3089 1.7 15 8 6 11 40%   0 1255 288 96%
c w  0.05  4 17 4 3 116 2 4122 3056 1.7 15 8 6 11 40%   0 1255 288 96%
c -  0.07  4 18 4 4 319 3 5148 3285 1.7 15 9 4 11 40%   0 1255 288 96%
c }  0.08  4 18 5 4 490 3 6346 4455 1.6 15 9 4 11 40%   0 1255 288 96%
c [  0.08  4 20 5 4 490 1 6346 4455 1.6 18 12 5 14 41%   0 1255 288 96%
c I  0.08  4 20 5 4 490 1 6346 4455 1.6 18 12 5 14 41%   0 1255 288 96%
c -  0.09  5 19 5 5 490 1 7148 4291 1.6 17 11 5 14 41%   0 1255 288 96%
c -  0.11  5 18 5 6 492 1 9384 5125 1.6 17 11 4 13 41%   0 1255 288 96%
c ]  0.11  5 18 6 6 492 1 9396 5137 1.6 17 11 4 13 41%   0 1255 288 96%
c {  0.11  5 18 6 6 492 3 9396 5137 1.6 15 9 4 11 40%   0 1255 288 96%
c o  0.12  5 18 6 6 508 3 10074 5782 1.7 15 9 4 11 40%   0 1255 288 96%
c -  0.14  5 17 6 7 528 3 11834 5995 1.7 15 9 3 11 40%   0 1255 288 96%
c u  0.16  4 17 6 7 535 2 12694 6472 1.8 15 8 3 11 40%   0 1255 288 96%
c v  0.16  4 17 6 7 535 2 12694 6368 1.8 15 8 3 11 40%   0 1255 288 96%
c w  0.16  4 17 6 7 535 2 12694 6299 1.8 15 8 3 11 40%   0 1255 288 96%
c }  0.19  4 16 7 7 551 2 13465 7048 1.8 15 8 3 11 41%   0 1255 288 96%
c [  0.19  4 18 7 7 551 1 13465 7048 1.6 17 11 4 13 41%   0 1255 288 96%
c B  0.19  4 18 7 7 551 1 13465 7048 1.6 17 11 4 13 41%   0 1255 288 96%
c -  0.20  5 18 7 8 551 1 14479 6246 1.6 17 11 4 13 40%   0 1255 288 96%
c -  0.23  5 18 7 9 553 1 17307 6409 1.6 17 11 4 13 40%   0 1255 288 96%
c
c seconds  switched  rate        size/glue  tier1    binary      remaining
c        MB reductions conflicts       size   tier2    irredundant
c         level restarts    redundant     glue    trail      variables
c
c ]  0.24  5 18 8 9 554 1 18160 7155 1.6 17 11 4 13 40%   0 1255 288 96%
c {  0.24  5 16 8 9 554 2 18160 7155 1.8 15 8 3 11 41%   0 1255 288 96%
c -  0.28  6 16 8 10 809 3 20309 6941 1.8 15 9 3 10 40%   0 1255 288 96%
c o  0.28  6 16 8 10 814 3 20425 7045 1.7 15 9 3 10 40%   0 1255 288 96%
c e  0.28  6 16 8 10 815 3 20606 7218 1.7 15 9 3 10 40%   0 1254 287 96%
c ^  0.28  6 16 8 10 815 3 20606 7218 1.7 15 9 3 10 40%   0 1254 287 96%
c -  0.33  5 16 8 11 1058 3 23472 7759 1.7 15 9 2 10 40%   0 1254 287 96%
c }  0.34  5 16 9 11 1058 2 24319 8495 1.7 15 9 2 10 40%   0 1254 287 96%
c [  0.34  5 18 9 11 1058 1 24319 8495 1.6 17 11 4 13 40%   0 1254 287 96%
c W  0.34  5 18 9 11 1058 1 24319 8495 1.6 17 11 4 13 40%   0 1254 287 96%
c u  0.36  5 19 9 11 1059 1 26005 9730 1.5 18 12 4 14 41%   0 1254 287 96%
c v  0.37  5 19 9 11 1059 1 26005 9624 1.5 18 12 4 14 41%   0 1254 287 96%
c w  0.37  6 19 9 11 1059 1 26005 9564 1.5 18 12 4 14 41%   0 1254 287 96%
c -  0.39  6 19 9 12 1060 1 26788 7503 1.6 18 12 4 14 41%   0 1254 287 96%
c -  0.43  6 18 9 13 1062 1 30253 7612 1.6 18 11 3 13 42%   0 1254 287 96%
c O  0.45  6 18 9 13 1063 1 31847 9045 1.6 18 11 3 13 42%   0 1254 287 96%
c ]  0.46  5 18 10 13 1064 1 32992 10114 1.6 18 11 3 13 42%   0 1254 287 96%
c {  0.46  5 16 10 13 1064 2 32992 10114 1.7 15 9 2 10 40%   0 1254 287 96%
c -  0.49  6 16 10 14 1245 3 33858 8180 1.7 15 9 2 10 40%   0 1254 287 96%
c -  0.56  6 17 10 15 1731 3 37599 8938 1.7 15 9 2 10 40%   0 1254 287 96%
c
c seconds   switched    rate         size/glue tier1    binary      remaining
c        MB   reductions  conflicts        size  tier2    irredundant
c         level    restarts     redundant    glue    trail      variables
c
c o  0.62  6 17 10 15 1969 3 40428 11651 1.7 15 9 2 10 40%   0 1254 287 96%
c ^  0.64  6 17 10 15 2150 3 41214 12427 1.7 15 9 2 10 40%   0 1254 287 96%
c -  0.65  6 17 10 16 2211 3 41471 9688 1.7 15 9 2 10 40%   0 1254 287 96%
c }  0.65  6 17 11 16 2250 3 41619 9835 1.7 15 9 2 10 40%   0 1254 287 96%
c [  0.65  6 18 11 16 2250 1 41619 9835 1.6 18 11 3 13 42%   0 1254 287 96%
c B  0.65  6 18 11 16 2250 1 41619 9835 1.6 18 11 3 13 42%   0 1254 287 96%
c u  0.70  6 18 11 16 2252 1 44346 11382 1.6 18 11 3 13 42%   0 1254 287 96%
c v  0.72  6 18 11 16 2252 1 44346 11312 1.6 18 11 3 13 42%   0 1254 287 96%
c w  0.72  6 18 11 16 2252 1 44346 11149 1.6 18 11 3 13 42%   0 1254 287 96%
c -  0.74  6 18 11 17 2252 1 45473 8692 1.6 18 11 3 13 42%   0 1254 287 96%
c -  0.80  6 18 11 18 2255 1 49596 8802 1.6 18 11 3 13 42%   0 1254 287 96%
c -  0.86  6 18 11 19 2256 1 53838 9182 1.6 18 11 3 13 42%   0 1254 287 96%
c W  0.86  5 18 11 19 2256 1 53841 9185 1.6 18 11 3 13 42%   0 1254 287 96%
c ]  0.89  5 18 12 19 2259 1 56264 11423 1.6 18 11 3 13 42%   0 1254 287 96%
c {  0.89  5 17 12 19 2259 3 56264 11423 1.7 15 9 2 10 40%   0 1254 287 96%
c -  0.93  6 17 12 20 2334 3 58198 9807 1.7 15 9 2 10 40%   0 1254 287 96%
c -  1.02  6 17 12 21 2714 3 62670 10826 1.7 15 9 2 10 40%   0 1254 287 96%
c -  1.15  6 17 12 22 3478 3 67253 11544 1.6 15 9 2 10 40%   0 1254 287 96%
c }  1.15  6 17 13 22 3481 3 67743 12000 1.6 15 9 2 10 40%   0 1254 287 96%
c [  1.15  6 18 13 22 3481 1 67743 12000 1.6 18 11 3 13 42%   0 1254 287 96%
c
c seconds   switched    rate         size/glue  tier1    binary      remaining
c        MB   reductions  conflicts        size   tier2    irredundant
c         level    restarts     redundant     glue    trail      variables
c
c u  1.17  5 18 13 22 3481 1 67963 11068 1.6 18 11 3 13 42%   0 1254 287 96%
c v  1.19  6 18 13 22 3481 1 67963 10501 1.6 18 11 3 13 42%   0 1254 287 96%
c w  1.19  6 18 13 22 3481 1 67963 10492 1.6 18 11 3 13 42%   0 1254 287 96%
c I  1.28  6 18 13 22 3481 1 68747 11246 1.6 18 11 3 13 42%   0 1254 287 96%
c -  1.33  6 17 13 23 3484 1 71944 10312 1.6 17 11 3 13 42%   0 1254 287 96%
c -  1.40  7 17 13 24 3487 1 76740 10582 1.6 17 11 3 13 42%   0 1254 287 96%
c -  1.47  7 17 13 25 3489 1 81638 10560 1.6 17 11 3 12 41%   0 1254 287 96%
c ^  1.53  7 17 13 25 3492 1 85892 14367 1.6 17 11 3 12 41%   0 1254 287 96%
c o  1.53  7 17 13 25 3492 1 85892 14367 1.6 17 11 3 12 41%   0 1254 287 96%
c ]  1.54  6 17 14 25 3493 1 86384 14825 1.6 17 11 3 12 41%   0 1254 287 96%
c {  1.54  6 17 14 25 3493 3 86384 14825 1.6 15 9 2 10 40%   0 1254 287 96%
c -  1.55  7 17 14 26 3523 3 86638 11233 1.6 15 9 2 10 40%   0 1254 287 96%
c -  1.67  7 17 14 27 3952 3 91737 12027 1.6 15 9 2 10 40%   0 1254 287 96%
c -  1.80  7 17 14 28 4381 3 96933 12728 1.6 15 9 2 10 40%   0 1254 287 96%
c u  1.81  7 17 14 28 4392 3 97020 12032 1.6 15 9 2 10 40%   0 1254 287 96%
c v  1.82  7 17 14 28 4392 3 97020 11575 1.6 15 9 2 10 40%   0 1254 287 96%
c w  1.83  7 17 14 28 4392 3 97020 11554 1.6 15 9 2 10 40%   0 1254 287 96%
c }  1.92  7 17 15 28 4612 3 101099 15464 1.6 15 9 2 10 40%   0 1254 287 96%
c [  1.92  7 17 15 28 4612 1 101099 15464 1.6 17 11 3 12 41%   0 1254 287 96%
c B  1.92  7 17 15 28 4612 1 101099 15464 1.6 17 11 3 12 41%   0 1254 287 96%
c
c seconds   switched    rate          size/glue  tier1    binary      remaining
c        MB   reductions  conflicts         size   tier2    irredundant
c         level    restarts      redundant     glue    trail      variables
c
c -  1.94  7 17 15 29 4613 1 102224 12033 1.6 17 11 3 12 41%   0 1254 287 96%
c -  2.02  7 17 15 30 4617 1 107609 11391 1.6 17 11 3 12 42%   0 1254 287 96%
c -  2.11  7 17 15 31 4618 1 113086 10836 1.6 17 11 3 12 42%   0 1254 287 96%
c -  2.19  7 17 15 32 4623 1 118654 11274 1.6 18 11 3 12 42%   0 1254 287 96%
c W  2.25  6 17 15 32 4625 1 122010 14274 1.6 18 11 3 12 42%   0 1254 287 96%
c -  2.29  6 17 15 33 4625 1 124310 11823 1.6 18 11 3 12 42%   0 1254 287 96%
c ]  2.30  6 17 16 33 4625 1 124929 12400 1.6 18 11 3 12 42%   0 1254 287 96%
c {  2.30  6 17 16 33 4625 3 124929 12400 1.6 15 9 2 10 40%   0 1254 287 96%
c o  2.34  6 17 16 33 4671 3 126810 14171 1.7 15 9 2 10 40%   0 1254 287 96%
c -  2.44  6 17 16 34 5083 3 130055 13400 1.6 15 9 2 10 40%   0 1254 287 96%
c u  2.49  6 17 16 34 5133 3 131724 13824 1.6 15 9 2 10 40%   0 1254 287 96%
c v  2.51  6 17 16 34 5133 3 131724 13727 1.6 15 9 2 10 40%   0 1254 287 96%
c w  2.52  6 17 16 34 5133 3 131724 13522 1.6 15 9 2 10 40%   0 1254 287 96%
c -  2.63  6 17 16 35 5460 3 135888 13562 1.6 15 9 2 10 40%   0 1254 287 96%
c -  2.77  6 17 16 36 5894 3 141804 14390 1.6 15 9 2 9 40%   0 1254 287 96%
c }  2.82  6 17 17 36 6123 3 143268 15822 1.6 15 9 2 9 40%   0 1254 287 96%
c [  2.82  6 17 17 36 6123 1 143268 15822 1.6 18 11 3 12 42%   0 1254 287 96%
c O  2.87  6 17 17 36 6125 1 146235 18520 1.6 18 11 3 12 42%   0 1254 287 96%
c -  2.91  6 17 17 37 6126 1 147805 14710 1.6 18 11 3 12 42%   0 1254 287 96%
c -  3.01  6 17 17 38 6129 1 153888 14875 1.6 17 11 3 12 42%   0 1254 287 96%
c
c seconds   switched    rate          size/glue  tier1    binary      remaining
c        MB   reductions  conflicts         size   tier2    irredundant
c         level    restarts      redundant     glue    trail      variables
c
c e  3.08  6 17 17 38 6132 1 157853 18502 1.6 17 11 3 12 42%   0 1277 280 93%
c ^  3.08  6 17 17 38 6132 1 157853 18502 1.6 17 11 3 12 42%   0 1277 280 93%
c -  3.13  7 17 17 39 6133 1 160053 14155 1.6 17 11 3 12 42%   0 1277 280 93%
c -  3.24  7 17 17 40 6136 1 166297 13852 1.6 17 11 3 12 42%   0 1277 280 93%
c ]  3.30  7 17 18 40 6137 1 169691 16812 1.6 17 11 3 12 42%   0 1277 280 93%
c {  3.30  7 17 18 40 6137 3 169691 16812 1.6 15 9 2 9 40%   0 1277 280 93%
c u  3.39  7 17 18 40 6214 3 172281 17901 1.6 15 9 2 9 40%   0 1277 280 93%
c v  3.42  7 17 18 40 6214 3 172281 17752 1.6 15 9 2 9 40%   0 1277 280 93%
c w  3.44  9 17 18 40 6214 3 172281 17419 1.6 15 9 2 9 40%   0 1277 280 93%
c -  3.45  8 17 18 41 6219 3 172621 12967 1.6 15 9 2 9 40%   0 1277 280 93%
c o  3.53  8 16 18 41 6245 3 177024 16996 1.7 15 9 2 9 40%   0 1277 280 93%
c -  3.59  8 16 18 42 6318 3 179024 15021 1.7 15 9 2 9 40%   0 1277 280 93%
c -  3.75  8 16 18 43 6382 2 185505 16354 1.7 15 9 2 9 40%   0 1277 280 93%
c }  3.94  8 16 19 43 6584 2 192036 22447 1.7 15 9 2 9 40%   0 1277 280 93%
c [  3.94  8 17 19 43 6584 1 192036 22447 1.6 17 11 3 12 42%   0 1277 280 93%
c B  3.94  8 17 19 43 6584 1 192036 22447 1.6 17 11 3 12 42%   0 1277 280 93%
c -  3.94  8 17 19 44 6584 1 192063 17332 1.6 17 11 3 12 42%   0 1277 280 93%
c -  4.06  9 17 19 45 6589 1 198696 16281 1.6 18 11 3 12 42%   0 1277 280 93%
c -  4.18  8 17 19 46 6592 1 205405 14567 1.6 18 11 3 12 42%   0 1277 280 93%
c -  4.32  8 17 19 47 6596 1 212187 14923 1.6 18 11 2 12 42%   0 1277 280 93%
c
c seconds   switched    rate          size/glue  tier1    binary      remaining
c        MB   reductions  conflicts         size   tier2    irredundant
c         level    restarts      redundant     glue    trail      variables
c
c u  4.47  7 17 19 47 6598 1 218665 19564 1.6 18 11 2 12 42%   0 1277 280 93%
c v  4.50  7 17 19 47 6598 1 218665 18811 1.6 18 11 2 12 42%   0 1277 280 93%
c w  4.52  9 17 19 47 6598 1 218665 17310 1.6 18 11 2 12 42%   0 1277 280 93%
c -  4.71  9 17 19 48 6598 1 219042 13604 1.6 18 11 2 12 42%   0 1277 280 93%
c W  4.79  8 17 19 48 6598 1 223488 17495 1.6 18 11 2 12 42%   0 1277 280 93%
c -  4.83  8 17 19 49 6600 1 225970 14211 1.6 18 11 2 12 42%   0 1277 280 93%
c ]  4.85  8 17 20 49 6601 1 227198 15322 1.6 18 11 2 12 42%   0 1277 280 93%
c {  4.85  8 16 20 49 6601 2 227198 15322 1.7 15 9 2 9 40%   0 1277 280 93%
c -  5.05  8 16 20 50 7365 2 232972 15126 1.7 15 9 2 9 40%   0 1277 280 93%
c o  5.16  8 16 20 50 7695 2 237041 18878 1.7 15 9 2 9 40%   0 1277 280 93%
c -  5.24  8 16 20 51 7798 2 240043 16957 1.7 15 9 2 9 40%   0 1277 280 93%
c -  5.47  8 16 20 52 8493 3 247185 18157 1.7 15 9 2 9 40%   0 1277 280 93%
c }  5.72  8 16 21 52 9359 3 253937 24605 1.6 15 9 2 9 40%   0 1277 280 93%
c [  5.72  8 17 21 52 9359 1 253937 24605 1.6 18 11 2 12 42%   0 1277 280 93%
c -  5.73  8 17 21 53 9359 1 254396 18804 1.6 18 11 2 12 42%   0 1277 280 93%
c I  5.84  8 17 21 53 9362 1 258839 22896 1.6 18 11 2 12 42%   0 1277 280 93%
c e  5.86  8 17 21 53 9363 1 259776 23717 1.6 18 11 2 12 42%   0 1394 261 87%
c ^  5.86  8 17 21 53 9363 1 259776 23717 1.6 18 11 2 12 42%   0 1394 261 87%
c -  5.91  8 17 21 54 9364 1 261676 16802 1.6 18 11 2 12 42%   0 1394 261 87%
c -  6.06  8 17 21 55 9368 1 269024 18066 1.6 18 11 2 12 42%   0 1394 261 87%
c
c seconds   switched    rate          size/glue  tier1    binary      remaining
c        MB   reductions  conflicts         size   tier2    irredundant
c         level    restarts      redundant     glue    trail      variables
c
c u  6.14  8 16 21 55 9369 1 271168 18760 1.6 18 11 2 12 42%   0 1394 261 87%
c v  6.17  8 16 21 55 9369 1 271168 17874 1.6 18 11 2 12 42%   0 1394 261 87%
c w  6.19  8 16 21 55 9369 1 271168 16764 1.6 18 11 2 12 42%   0 1394 261 87%
c -  6.29  8 16 21 56 9372 1 276440 16769 1.6 17 11 2 12 42%   0 1394 261 87%
c -  6.44  8 16 21 57 9373 1 283923 18058 1.6 17 11 2 11 42%   0 1394 261 87%
c -  6.62  8 16 21 58 9377 1 291472 19345 1.7 17 10 2 11 42%   0 1394 261 87%
c ]  6.72  8 16 22 58 9380 1 296363 23888 1.7 17 10 2 11 42%   0 1394 261 87%
c {  6.72  8 16 22 58 9380 3 296363 23888 1.6 15 9 2 9 40%   0 1394 261 87%
c -  6.81  9 16 22 59 9428 3 299090 20554 1.6 15 9 2 9 40%   0 1394 261 87%
c -  7.07  9 16 22 60 9544 2 306771 21022 1.7 15 9 2 9 40%   0 1394 261 87%
c o  7.08  9 16 22 60 9549 2 307403 21615 1.7 15 9 2 9 40%   0 1394 261 87%
c -  7.32  9 15 22 61 9712 2 314516 21356 1.7 15 9 2 9 40%   0 1394 261 87%
c -  7.60  9 15 22 62 9987 2 322326 21697 1.7 15 9 2 9 40%   0 1394 261 87%
c }  7.77  9 15 23 62 10083 2 327879 26795 1.7 15 9 2 9 40%   0 1394 261 87%
c [  7.77  9 16 23 62 10083 1 327879 26795 1.7 17 10 2 11 42%   0 1394 261 87%
c B  7.77  9 16 23 62 10083 1 327879 26795 1.7 17 10 2 11 42%   0 1394 261 87%
c u  7.85  9 16 23 62 10084 1 329046 26371 1.7 17 10 2 11 42%   0 1394 261 87%
c v  7.91  9 16 23 62 10084 1 329046 26075 1.7 17 10 2 11 42%   0 1394 261 87%
c w  7.94  9 16 23 62 10084 1 329046 25970 1.7 17 10 2 11 42%   0 1394 261 87%
c -  7.96  9 16 23 63 10085 1 330200 19887 1.7 17 10 2 11 42%   0 1394 261 87%
c
c seconds   switched     rate          size/glue  tier1    binary      remaining
c        MB   reductions   conflicts         size   tier2    irredundant
c         level    restarts       redundant     glue    trail      variables
c
c -  8.14  9 16 23 64 10089 1 338137 18899 1.7 17 10 2 11 42%   0 1394 261 87%
c -  8.32  9 16 23 65 10094 1 346137 17994 1.7 17 10 2 11 42%   0 1394 261 87%
c -  8.49  9 15 23 66 10097 1 354200 18469 1.7 17 10 2 11 42%   0 1394 261 87%
c -  8.67  9 15 23 67 10099 1 362324 20042 1.7 17 10 2 11 42%   0 1394 261 87%
c -  8.87  9 15 23 68 10104 1 370511 20928 1.7 17 10 2 11 42%   0 1394 261 87%
c W  8.91  9 15 23 68 10104 1 371590 21885 1.7 17 10 2 11 42%   0 1394 261 87%
c ]  9.05  9 15 24 68 10108 1 377999 27782 1.7 17 10 2 11 43%   0 1394 261 87%
c {  9.05  9 15 24 68 10108 2 377999 27782 1.7 15 9 2 9 40%   0 1394 261 87%
c -  9.09  9 15 24 69 10215 2 378757 20570 1.7 15 9 2 9 40%   0 1394 261 87%
c -  9.39  9 15 24 70 10804 2 387065 20914 1.7 15 9 2 9 40%   0 1394 261 87%
c o  9.40  9 15 24 70 10878 2 387410 21245 1.7 15 9 2 9 40%   0 1394 261 87%
c e  9.64  9 15 24 70 11712 2 392600 26261 1.6 15 9 2 9 40%   0 1592 245 82%
c s  9.64  9 15 24 70 11712 2 392600 26261 1.6 15 9 2 9 40%   0 1591 245 82%
c !  9.64  9 15 24 70 11712 2 392600 26261 1.6 15 9 2 9 40%   0 1591 245 82%
c u  9.72  9 15 24 70 11839 2 393192 17047 1.6 15 9 2 9 40%   0 1591 245 82%
c v  9.78  9 15 24 70 11839 2 393192 15693 1.6 15 9 2 9 40%   0 1591 245 82%
c w  9.80  9 15 24 70 11839 2 393192 15587 1.6 15 9 2 9 40%   0 1591 245 82%
c -  9.88  8 15 24 71 12134 2 395431 13520 1.6 15 9 2 9 40%   0 1591 245 82%
c - 10.12  8 16 24 72 12994 2 403858 16132 1.6 15 9 2 9 41%   0 1591 245 82%
c - 10.39  8 16 24 73 13708 2 412344 18687 1.6 15 9 2 9 41%   0 1591 245 82%
c
c seconds   switched     rate          size/glue tier1   binary      remaining
c        MB   reductions   conflicts         size  tier2   irredundant
c         level    restarts       redundant    glue   trail      variables
c
c } 10.46  8 16 25 73 13942 2 414676 20871 1.6 15 9 2 9 41%   0 1591 245 82%
c [ 10.46  8 15 25 73 13942 1 414676 20871 1.7 17 10 2 11 43%   0 1591 245 82%
c O 10.57  9 16 25 73 13945 1 419751 25627 1.7 17 10 2 11 43%   0 1591 245 82%
c - 10.60  9 16 25 74 13947 1 420888 19192 1.7 17 10 2 11 43%   0 1591 245 82%
c - 10.79  9 16 25 75 13951 1 429492 17679 1.6 17 11 2 11 43%   0 1591 245 82%
c - 10.98  9 16 25 76 13955 1 438153 17374 1.6 17 10 2 11 43%   0 1591 245 82%
c - 11.16  9 16 25 77 13956 1 446872 19314 1.6 17 10 2 11 42%   0 1591 245 82%
c - 11.35  9 15 25 78 13962 1 455647 20411 1.6 17 10 2 11 42%   0 1591 245 82%
c u 11.54  9 15 25 78 13966 1 462136 24479 1.6 17 10 2 11 42%   0 1591 245 82%
c v 11.61  9 15 25 78 13966 1 462136 22997 1.6 17 10 2 11 42%   0 1591 245 82%
c w 11.64  9 15 25 78 13966 1 462136 21720 1.6 17 10 2 11 42%   0 1591 245 82%
c - 11.69  9 15 25 79 13967 1 464479 17294 1.6 17 10 2 11 43%   0 1591 245 82%
c B 11.84  9 15 25 79 13971 1 472539 24234 1.6 17 10 2 11 43%   0 1591 245 82%
c - 11.86  9 15 25 80 13971 1 473367 17488 1.6 17 10 2 11 43%   0 1591 245 82%
c ] 11.93  9 16 26 80 13971 1 477323 20996 1.6 17 11 2 11 43%   0 1591 245 82%
c { 11.93  9 16 26 80 13971 2 477323 20996 1.6 15 9 2 9 41%   0 1591 245 82%
c o 11.93  9 16 26 80 13978 2 477411 21082 1.6 15 9 2 9 41%   0 1591 245 82%
c - 12.13  9 16 26 81 14427 2 482311 18553 1.6 15 9 2 9 41%   0 1591 245 82%
c - 12.44  9 16 26 82 15084 2 491312 19784 1.6 15 9 1 9 41%   0 1591 245 82%
c - 12.75  9 16 26 83 15782 2 500367 21032 1.6 15 9 1 9 41%   0 1591 245 82%
c
c seconds   switched     rate          size/glue tier1   binary      remaining
c        MB   reductions   conflicts         size  tier2   irredundant
c         level    restarts       redundant    glue   trail      variables
c
c - 13.10  9 16 26 84 16475 2 509479 21605 1.6 15 9 1 9 41%   0 1591 245 82%
c - 13.35  9 15 26 85 16651 2 518645 22401 1.6 15 9 1 9 41%   0 1591 245 82%
c } 13.39  9 15 27 85 16812 2 519541 23275 1.6 15 9 1 9 41%   0 1591 245 82%
c [ 13.39  9 16 27 85 16812 1 519541 23275 1.6 17 11 2 11 43%   0 1591 245 82%
c - 13.59  9 15 27 86 16818 1 527864 22119 1.6 17 11 2 11 43%   0 1591 245 82%
c W 13.67  9 15 27 86 16818 1 530123 24032 1.6 17 10 2 11 43%   0 1591 245 82%
c - 13.84  9 16 27 87 16823 1 537137 20078 1.6 17 11 2 11 43%   0 1591 245 82%
c u 13.88  9 16 27 87 16823 1 537441 18480 1.6 17 11 2 11 43%   0 1591 245 82%
c v 13.99  9 16 27 87 16823 1 537441 16921 1.6 17 11 2 11 43%   0 1591 245 82%
c w 14.02  9 16 27 87 16823 1 537441 16861 1.6 17 11 2 11 43%   0 1591 245 82%
c - 14.62 12 15 27 88 16826 1 546464 17031 1.6 17 11 2 11 43%   0 1591 245 82%
c - 14.81 12 15 27 89 16829 1 555844 18856 1.6 17 10 2 11 43%   0 1591 245 82%
c - 15.01 12 15 27 90 16834 1 565278 20373 1.6 17 10 2 11 43%   0 1591 245 82%
c - 15.20 12 15 27 91 16840 1 574764 20508 1.6 17 10 2 11 43%   0 1591 245 82%
c - 15.38 12 15 27 92 16841 1 584303 19785 1.6 17 10 2 11 43%   0 1591 245 82%
c ] 15.49 12 15 28 92 16842 1 589452 24241 1.6 17 10 2 11 43%   0 1591 245 82%
c { 15.49 12 15 28 92 16842 2 589452 24241 1.6 15 9 1 9 41%   0 1591 245 82%
c o 15.49 12 15 28 92 16855 2 589510 24295 1.6 15 9 1 9 41%   0 1591 245 82%
c - 15.61 12 15 28 93 16926 2 593895 20803 1.6 15 9 1 9 41%   0 1591 245 82%
c - 15.91 12 15 28 94 17379 2 603538 22935 1.6 15 9 1 9 41%   0 1591 245 82%
c
c seconds   switched     rate          size/glue tier1   binary      remaining
c        MB   reductions   conflicts         size  tier2   irredundant
c         level    restarts       redundant    glue   trail      variables
c
c - 16.20 12 15 28 95 17572 2 613233 23663 1.6 15 9 1 9 41%   0 1591 245 82%
c u 16.49 12 15 28 95 18190 2 619225 27901 1.6 15 9 1 9 41%   0 1591 245 82%
c v 16.55 12 15 28 95 18190 2 619225 27045 1.6 15 9 1 9 41%   0 1591 245 82%
c w 16.57 12 15 28 95 18190 2 619225 26743 1.6 15 9 1 9 41%   0 1591 245 82%
c - 16.73 12 15 28 96 18482 2 622981 21870 1.6 15 9 1 9 41%   0 1591 245 82%
c - 17.14 12 15 28 97 19531 2 632778 23559 1.6 15 9 2 9 41%   0 1591 245 82%
c } 17.31 12 15 29 97 19879 2 637590 27906 1.6 15 9 2 9 41%   0 1591 245 82%
c [ 17.31 12 15 29 97 19879 1 637590 27906 1.6 17 10 2 11 43%   0 1591 245 82%
c I 17.31 12 15 29 97 19879 1 637590 27906 1.6 17 10 2 11 43%   0 1591 245 82%
c - 17.45 12 15 29 98 19882 1 642626 24364 1.6 17 10 2 11 43%   0 1591 245 82%
c - 17.68 12 15 29 99 19888 1 652525 24329 1.6 17 10 2 11 43%   0 1591 245 82%
c - 17.92 12 15 29 100 19893 1 662477 23851 1.6 17 10 2 11 43%   0 1591 245 82%
c - 18.16 12 15 29 101 19896 1 672477 23466 1.6 17 10 2 11 43%   0 1591 245 82%
c - 18.41 12 15 29 102 19900 1 682526 23467 1.6 17 10 2 11 43%   0 1591 245 82%
c - 18.65 12 15 29 103 19907 1 692625 24743 1.6 17 10 2 11 43%   0 1591 245 82%
c - 18.91 12 15 29 104 19908 1 702773 25964 1.6 17 10 2 11 43%   0 1591 245 82%
c B 18.97 12 15 29 104 19909 1 705272 28045 1.6 17 10 2 11 44%   0 1591 245 82%
c o 18.97 12 15 29 104 19909 1 705272 28045 1.6 17 10 2 11 44%   0 1591 245 82%
c u 19.10 12 15 29 104 19909 1 707568 28598 1.6 17 10 2 11 44%   0 1591 245 82%
c v 19.18 12 15 29 104 19909 1 707568 27184 1.6 17 10 2 11 44%   0 1591 245 82%
c
c seconds   switched      rate          size/glue  tier1    binary      remaining
c        MB   reductions    conflicts         size   tier2    irredundant
c         level     restarts       redundant     glue    trail      variables
c
c w 19.22 12 15 29 104 19909 1 707568 26146 1.6 17 10 2 11 44%   0 1591 245 82%
c ] 19.27 12 15 30 104 19909 1 709896 28279 1.6 17 10 2 11 44%   0 1591 245 82%
c { 19.27 12 15 30 104 19909 2 709896 28279 1.6 15 9 2 9 41%   0 1591 245 82%
c - 19.40 12 15 30 105 20061 2 712971 23533 1.6 15 9 2 9 41%   0 1591 245 82%
c - 19.77 12 15 30 106 20646 2 723217 23713 1.6 15 9 1 9 41%   0 1591 245 82%
c - 20.18 12 15 30 107 21227 2 733513 25209 1.6 15 9 1 9 41%   0 1591 245 82%
c - 20.65 12 15 30 108 22192 2 743858 25594 1.6 15 9 1 9 42%   0 1591 245 82%
c - 21.07 12 15 30 109 22847 2 754251 25967 1.6 15 9 1 9 42%   0 1591 245 82%
c } 21.47 12 15 31 109 23362 2 764330 34694 1.6 14 9 1 9 41%   0 1591 245 82%
c [ 21.47 12 15 31 109 23362 1 764330 34694 1.6 17 10 2 11 44%   0 1591 245 82%
c - 21.48 12 15 31 110 23362 1 764692 26524 1.6 17 10 2 11 44%   0 1591 245 82%
c - 21.76 12 15 31 111 23368 1 775181 26380 1.6 16 10 2 11 44%   0 1591 245 82%
c W 21.90 12 15 31 111 23370 1 778247 28982 1.6 16 10 2 11 44%   0 1591 245 82%
c - 22.08 12 15 31 112 23375 1 785716 25252 1.6 16 10 2 11 43%   0 1591 245 82%
c - 22.33 12 15 31 113 23376 1 796299 23916 1.6 16 10 2 11 43%   0 1591 245 82%
c u 22.55 12 14 31 113 23381 1 802588 26429 1.6 16 10 2 11 43%   0 1591 245 82%
c v 22.70 12 14 31 113 23381 1 802588 23282 1.6 16 10 2 11 43%   0 1591 245 82%
c w 22.75 12 14 31 113 23381 1 802588 20857 1.6 16 10 2 11 43%   0 1591 245 82%
c - 22.84 12 14 31 114 23383 1 806929 17447 1.6 16 10 2 10 43%   0 1591 245 82%
c - 23.06 12 14 31 115 23389 1 817606 20454 1.6 16 10 2 10 43%   0 1591 245 82%
c
c seconds   switched      rate          size/glue  tier1    binary      remaining
c        MB   reductions    conflicts         size   tier2    irredundant
c         level     restarts       redundant     glue    trail      variables
c
c - 23.27 12 14 31 116 23391 1 828330 21019 1.6 16 10 2 10 44%   0 1591 245 82%
c - 23.51 12 14 31 117 23392 1 839100 20156 1.6 16 10 2 10 44%   0 1591 245 82%
c - 23.76 12 14 31 118 23395 1 849916 22270 1.6 16 10 2 10 44%   0 1591 245 82%
c O 23.91 12 14 31 118 23399 1 856675 27983 1.6 16 10 2 10 44%   0 1591 245 82%
c o 23.91 12 14 31 118 23399 1 856675 27983 1.6 16 10 2 10 44%   0 1591 245 82%
c - 24.01 12 14 31 119 23402 1 860779 23079 1.6 16 10 2 10 44%   0 1591 245 82%
c ] 24.05 12 14 32 119 23403 1 862790 24860 1.6 16 10 2 10 44%   0 1591 245 82%
c { 24.05 12 15 32 119 23403 2 862790 24860 1.6 14 9 1 9 41%   0 1591 245 82%
c - 24.42 12 15 32 120 24137 2 871687 23377 1.6 14 9 1 8 42%   0 1591 245 82%
c - 24.82 12 15 32 121 24782 2 882642 24221 1.6 14 9 1 8 42%   0 1591 245 82%
c - 25.25 12 15 32 122 25459 2 893643 25557 1.6 14 9 1 8 42%   0 1591 245 82%
c u 25.70 12 14 32 122 25949 2 904364 33069 1.6 14 9 1 8 42%   0 1591 245 82%
c v 25.84 12 14 32 122 25949 2 904364 31661 1.6 14 9 1 8 42%   0 1591 245 82%
c w 25.88 12 14 32 122 25949 2 904364 31193 1.6 14 9 1 8 42%   0 1591 245 82%
c - 25.90 12 14 32 123 25969 2 904689 23338 1.6 14 9 1 8 42%   0 1591 245 82%
c - 26.39 12 15 32 124 27071 2 915782 23867 1.6 14 9 1 8 42%   0 1591 245 82%
c } 26.64 12 14 33 124 27402 2 923896 30868 1.6 14 9 1 8 42%   0 1591 245 82%
c [ 26.64 12 14 33 124 27402 1 923896 30868 1.6 16 10 2 10 44%   0 1591 245 82%
c - 26.72 12 14 33 125 27404 1 926917 25069 1.6 16 10 2 10 44%   0 1591 245 82%
c - 26.97 12 14 33 126 27410 1 938098 25613 1.6 16 10 2 10 44%   0 1591 245 82%
c
c seconds   switched      rate          size/glue  tier1    binary      remaining
c        MB   reductions    conflicts         size   tier2    irredundant
c         level     restarts       redundant     glue    trail      variables
c
c B 27.03 12 14 33 126 27412 1 940712 27750 1.6 16 10 2 10 44%   0 1591 245 82%
c - 27.23 12 14 33 127 27416 1 949323 24051 1.6 16 10 2 10 44%   0 1591 245 82%
c - 27.51 12 14 33 128 27419 1 960595 22873 1.6 16 10 2 10 44%   0 1591 245 82%
c - 27.76 12 14 33 129 27426 1 971908 23766 1.6 16 10 2 10 44%   0 1591 245 82%
c - 28.01 12 14 33 130 27431 1 983267 23752 1.6 16 10 2 10 44%   1 1591 245 82%
c - 28.25 12 14 33 131 27432 1 994668 21926 1.6 16 10 2 10 44%   1 1591 245 82%
c - 28.52 12 14 33 132 27433 1 1006114 21700 1.6 16 10 2 10 44%   1 1591 245 82%
c u 28.74 12 14 33 132 27438 1 1012975 25770 1.6 16 10 2 10 44%   1 1591 245 82%
c v 28.85 12 14 33 132 27438 1 1012975 22964 1.6 16 10 2 10 44%   1 1591 245 82%
c w 28.90 12 14 33 132 27438 1 1012975 20886 1.6 16 10 2 10 44%   1 1591 245 82%
c o 28.90 12 14 33 132 27438 1 1012975 20886 1.6 16 10 2 10 44%   1 1591 245 82%
c - 29.00 12 14 33 133 27439 1 1017603 18082 1.6 16 10 2 10 44%   1 1591 245 82%
c - 29.25 12 14 33 134 27446 1 1029136 20187 1.6 16 10 2 10 44%   1 1591 245 82%
c W 29.28 12 14 33 134 27446 1 1030512 21403 1.6 16 10 2 10 44%   1 1591 245 82%
c ] 29.28 12 14 34 134 27447 1 1030635 21505 1.6 16 10 2 10 44%   1 1591 245 82%
c { 29.28 12 14 34 134 27447 2 1030635 21505 1.6 14 9 1 8 42%   1 1591 245 82%
c - 29.58 12 14 34 135 27561 2 1040711 23665 1.6 14 9 1 8 42%   2 1591 245 82%
c - 29.88 12 14 34 136 27623 2 1052330 26330 1.6 14 9 1 8 42%   4 1591 245 82%
c - 30.18 12 13 34 137 27726 2 1063992 29085 1.6 14 9 2 8 42%   5 1591 245 82%
c - 30.57 13 13 34 138 27921 2 1075696 30462 1.6 14 8 2 8 42%   5 1591 245 82%
c
c seconds   switched      rate           size/glue tier1   binary      remaining
c        MB   reductions     conflicts         size  tier2   irredundant
c         level     restarts        redundant    glue   trail      variables
c
c - 30.96 13 13 34 139 28103 2 1087444 30827 1.6 14 8 2 8 42%   5 1591 245 82%
c } 31.36 13 13 35 139 28336 2 1098782 40306 1.6 14 8 2 8 42%   8 1591 245 82%
c [ 31.36 13 14 35 139 28336 1 1098782 40306 1.6 16 10 2 10 44%   8 1591 245 82%
c - 31.38 13 14 35 140 28336 1 1099233 31571 1.6 16 10 2 10 44%   8 1591 245 82%
c - 31.69 13 14 35 141 28342 1 1111065 30647 1.6 16 10 2 10 44%   8 1591 245 82%
c - 32.02 13 14 35 142 28349 1 1122939 27716 1.6 16 10 2 10 44%   8 1591 245 82%
c I 32.11 13 14 35 142 28350 1 1126226 30401 1.6 16 10 2 10 44%   8 1591 245 82%
c u 32.28 13 14 35 142 28350 1 1128488 30359 1.6 16 10 2 10 44%   8 1591 245 82%
c v 32.40 13 14 35 142 28350 1 1128488 30019 1.6 16 10 2 10 44%   8 1591 245 82%
c w 32.45 13 14 35 142 28350 1 1128488 29701 1.6 16 10 2 10 44%   8 1591 245 82%
c t 33.02 17 14 35 142 28350 1 1128488 29701 1.6 16 10 2 10 44%   7 1591 245 82%
c - 33.16 17 14 35 143 28353 1 1134855 24900 1.6 16 10 2 10 44%   7 1591 245 82%
c - 33.43 17 14 35 144 28360 1 1146813 25700 1.6 16 10 2 10 44%   7 1591 245 82%
c - 33.73 17 14 35 145 28365 1 1158813 27026 1.6 16 10 2 10 44%   7 1591 245 82%
c - 34.05 17 14 35 146 28366 1 1170855 28521 1.6 16 10 2 10 44%   8 1591 245 82%
c s 34.13 17 14 35 146 28366 1 1173605 30831 1.6 16 10 2 10 44%   8 1589 245 82%
c o 34.13 17 14 35 146 28366 1 1173605 30831 1.6 16 10 2 10 44%   8 1589 245 82%
c ] 34.36 17 14 36 146 28367 1 1181621 37411 1.6 16 10 2 10 44%   8 1589 245 82%
c { 34.37 17 13 36 146 28367 2 1181621 37411 1.6 14 8 2 8 42%   8 1589 245 82%
c - 34.42 17 13 36 147 28420 2 1182939 29183 1.6 14 8 2 8 42%   8 1589 245 82%
c
c seconds   switched      rate           size/glue tier1   binary      remaining
c        MB   reductions     conflicts         size  tier2   irredundant
c         level     restarts        redundant    glue   trail      variables
c
c - 34.86 17 13 36 148 29146 2 1195063 30376 1.6 13 8 2 8 42%   9 1589 245 82%
c - 35.32 17 13 36 149 29902 2 1207229 31482 1.6 13 8 2 8 42%  11 1589 245 82%
c i 35.55 17 12 36 149 30284 2 1214821 37708 1.6 13 8 2 8 42%  20 1589 244 81%
c - 35.74 17 12 36 150 30704 2 1219436 24621 1.6 13 8 2 8 42%   3 1589 244 81%
c - 36.19 17 12 36 151 31588 2 1231683 28258 1.6 13 8 2 8 42%   3 1589 244 81%
c - 36.72 17 12 36 152 32452 2 1243972 30467 1.6 13 8 1 8 42%   3 1589 244 81%
c u 37.05 17 12 36 152 32684 2 1250911 33902 1.6 13 8 1 8 42%  16 1563 244 81%
c v 37.16 17 12 36 152 32684 2 1250911 32701 1.6 13 8 1 8 42%  16 1563 244 81%
c w 37.19 17 12 36 152 32684 2 1250911 32193 1.6 13 8 1 8 42%  16 1563 244 81%
c - 37.40 17 12 36 153 32869 2 1256303 28229 1.6 13 8 1 8 42%  16 1563 244 81%
c } 37.42 17 12 37 153 32900 2 1257178 28926 1.6 13 8 1 8 42%  17 1563 244 81%
c [ 37.42 17 14 37 153 32900 1 1257178 28926 1.6 16 10 2 10 44%  17 1563 244 81%
c B 37.42 17 14 37 153 32900 1 1257178 28926 1.6 16 10 2 10 44%  17 1563 244 81%
c - 37.71 17 14 37 154 32906 1 1268672 29122 1.6 16 10 2 10 44%  18 1563 244 81%
c - 38.04 17 13 37 155 32913 1 1281082 28640 1.6 15 10 2 10 44%  19 1563 244 81%
c i 38.17 17 13 37 155 32914 1 1286539 32464 1.6 15 9 2 10 44%  31 1563 243 81%
c i 38.22 17 13 37 155 32914 1 1288387 33821 1.6 15 9 2 10 44%  37 1563 241 80%
c - 38.34 15 13 37 156 32917 1 1293531 15142 1.6 15 9 2 10 44%  22 1563 241 80%
c i 38.36 15 13 37 156 32918 1 1294638 15944 1.6 15 9 2 10 44%  28 1563 239 80%
c i 38.38 15 13 37 156 32919 1 1295604 16620 1.6 15 9 2 10 44%  34 1563 238 79%
c
c seconds   switched      rate           size/glue tier1    binary      remaining
c        MB   reductions     conflicts         size  tier2    irredundant
c         level     restarts        redundant    glue    trail      variables
c
c i 38.41 15 13 37 156 32920 1 1297162 17800 1.6 15 9 2 10 44%  40 1563 237 79%
c i 38.43 15 13 37 156 32920 1 1297962 18431 1.6 15 9 2 10 44%  49 1563 236 79%
c i 38.43 15 13 37 156 32921 1 1298247 18611 1.6 15 9 2 10 44%  55 1563 235 78%
c i 38.44 15 13 37 156 32921 1 1298362 18685 1.6 15 9 2 10 44%  60 1563 234 78%
c ] 38.44 15 13 37 156 32921 1 1298422 18717 1.6 15 9 2 10 44%  62 1563 134 45%
c 0 38.44 15 12 37 156 32921 2 1298422 18717 1.6 13 8 1 8 42%  62 1563 134 45%
c
c ---- [ result ] ------------------------------------------------------------
c
s UNSATISFIABLE
c
c ---- [ profiling ] ---------------------------------------------------------
c
c          34.43   89.57 %  search
c          17.81   46.33 %  focused
c          16.62   43.24 %  stable
c           3.99   10.39 %  simplify
c           3.87   10.07 %  probe
c           2.60    6.76 %  vivify
c           1.23    3.20 %  sweep
c           0.24    0.62 %  reduce
c           0.13    0.33 %  walking
c           0.04    0.09 %  substitute
c           0.02    0.04 %  preprocess
c           0.01    0.02 %  eliminate
c           0.00    0.01 %  factor
c           0.00    0.01 %  congruence
c           0.00    0.00 %  transitive
c           0.00    0.00 %  subsume
c           0.00    0.00 %  fastel
c           0.00    0.00 %  backbone
c           0.00    0.00 %  parse
c           0.00    0.00 %  lucky
c =============================================
c          38.44  100.00 %  total
c
c ---- [ statistics ] --------------------------------------------------------
c
c conflicts:                          1298422            33779.94 per second
c decisions:                          2032511                1.57 per conflict
c eliminated:                              55               18 %  variables
c fast_eliminated:                         12               22 %  eliminated
c iterations:                              10                3 %  variables
c propagations:                      56766155          1476837    per second
c reductions:                             156             8323    interval
c reordered:                               15            86561    interval
c rephased:                                28            46372    interval
c restarts:                             32921               39    interval
c strengthened:                             3                0 %  checks
c subsumed:                                 3                0 %  checks
c switched:                                37            35092    interval
c vivified:                             74690               65 %  checks
c walks:                                    9           144269    interval
c
c ---- [ glue usage ] --------------------------------------------------------
c
c focused glue 1   used 1314593 clauses 50.04% accumulated 50.04% tier1
c focused glue 2   used  476600 clauses 18.14% accumulated 68.18%
c focused glue 3-6 used  464542 clauses 17.68% accumulated 85.86%
c focused glue 7   used   80303 clauses  3.06% accumulated 88.92%
c focused glue 8   used   75913 clauses  2.89% accumulated 91.81% tier2
c
c stable glue 2   used 785631 clauses 17.98% accumulated 59.30% tier1
c stable glue 3   used 378737 clauses  8.67% accumulated 67.97%
c stable glue 4-8 used 786621 clauses 18.01% accumulated 85.98%
c stable glue 9   used 121565 clauses  2.78% accumulated 88.76%
c stable glue 10  used 111475 clauses  2.55% accumulated 91.31% tier2
c
c ---- [ resources ] ---------------------------------------------------------
c
c maximum-resident-set-size:         17424384 bytes         17 MB
c process-time:                            38s              38.44 seconds
c
c ---- [ shutting down ] -----------------------------------------------------
c
c exit 20
